W in bcc structure                      
-15.9915
    -0.4970255917050522    0.4970255917050522    0.4970255917050522
     0.4970255917050522   -0.4970255917050522    0.4970255917050522
     0.4970255917050522    0.4970255917050522   -0.4970255917050522
   1
Direct
  0.0000000000000000  0.0000000000000000  0.0000000000000000
 
  0.00000000E+00  0.00000000E+00  0.00000000E+00
