W in hcp structure                      
   2.79864808997369     
     0.4971856176132070   -0.8611507504985861    0.0000000000000000
     0.4971856176132070    0.8611507504985861    0.0000000000000000
     0.0000000000000000    0.0000000000000000    1.6055096930764199
   2
Direct
  0.0000000000000000  0.0000000000000000  0.0000000000000000
  0.3333333333333357  0.6666666666666643  0.5000000000000000
 
  0.00000000E+00  0.00000000E+00  0.00000000E+00
  0.00000000E+00  0.00000000E+00  0.00000000E+00
