W in hcp structure
-31.0
 0.5 -0.86602540378443864676  0.0
 0.5  0.86602540378443864676  0.0
 0.0    0.0     1.633
 2
direct
 0.0 0.0 0.0
 0.33333333333333333333 -0.3333333333333333333 0.50000
