W in bcc structure
-15.5
-0.5 0.5 0.5
 0.5 -0.5 0.5
 0.5 0.5 -0.5
 1
direct
 0.0 0.0 0.0
