SYSTEM = /home/users/hammet1w/strucscan/version.preR14/data/Re_pv in A15
ENCUT = 400
ISMEAR = -5
EDIFF  = 0.000001 
ISPIN  = 1 
NBANDS  =  65
