W in fcc structure                      
-15.8760
     0.0000000000000000    0.4958821528354086    0.4958821528354086
     0.4958821528354086    0.0000000000000000    0.4958821528354086
     0.4958821528354086    0.4958821528354086    0.0000000000000000
   1
Direct
  0.0000000000000000  0.0000000000000000  0.0000000000000000
 
  0.00000000E+00  0.00000000E+00  0.00000000E+00
