W in A15 structure
-124.0
 1 0 0
 0 1 0
 0 0 1
 8
direct
0.00000000 0.00000000 0.00000000
0.50000000 0.50000000 0.50000000
0.25000000 0.50000000 0.00000000
0.75000000 0.50000000 0.00000000
0.00000000 0.25000000 0.50000000
0.00000000 0.75000000 0.50000000
0.50000000 0.00000000 0.25000000
0.50000000 0.00000000 0.75000000

