W in fcc structure
-15.5
 0  0.5 0.5
 0.5 0  0.5
 0.5 0.5  0
 1
direct
 0.0 0.0 0.0
