W in fcc structure
 4.02
 0  0.5 0.5
 0.5 0  0.5
 0.5 0.5  0
 1
direct
 0.0 0.0 0.0
